
n_res = 8;
rcap = [27, 28, 30, 26, 1598, 1573, 1560, 1527];
rtype = [1, 1, 1, 1, 2, 2, 2, 2];
n_tasks = 100;
modes =  [{1, 2, 3}, {4, 5, 6}, {7, 8, 9}, {10, 11, 12}, {13, 14, 15}, {16, 17, 18}, {19, 20, 21}, {22, 23, 24}, {25, 26, 27}, {28, 29, 30}, {31, 32, 33}, {34, 35, 36}, {37, 38, 39}, {40, 41, 42}, {43, 44, 45}, {46, 47, 48}, {49, 50, 51}, {52, 53, 54}, {55, 56, 57}, {58, 59, 60}, {61, 62, 63}, {64, 65, 66}, {67, 68, 69}, {70, 71, 72}, {73, 74, 75}, {76, 77, 78}, {79, 80, 81}, {82, 83, 84}, {85, 86, 87}, {88, 89, 90}, {91, 92, 93}, {94, 95, 96}, {97, 98, 99}, {100, 101, 102}, {103, 104, 105}, {106, 107, 108}, {109, 110, 111}, {112, 113, 114}, {115, 116, 117}, {118, 119, 120}, {121, 122, 123}, {124, 125, 126}, {127, 128, 129}, {130, 131, 132}, {133, 134, 135}, {136, 137, 138}, {139, 140, 141}, {142, 143, 144}, {145, 146, 147}, {148, 149, 150}, {151, 152, 153}, {154, 155, 156}, {157, 158, 159}, {160, 161, 162}, {163, 164, 165}, {166, 167, 168}, {169, 170, 171}, {172, 173, 174}, {175, 176, 177}, {178, 179, 180}, {181, 182, 183}, {184, 185, 186}, {187, 188, 189}, {190, 191, 192}, {193, 194, 195}, {196, 197, 198}, {199, 200, 201}, {202, 203, 204}, {205, 206, 207}, {208, 209, 210}, {211, 212, 213}, {214, 215, 216}, {217, 218, 219}, {220, 221, 222}, {223, 224, 225}, {226, 227, 228}, {229, 230, 231}, {232, 233, 234}, {235, 236, 237}, {238, 239, 240}, {241, 242, 243}, {244, 245, 246}, {247, 248, 249}, {250, 251, 252}, {253, 254, 255}, {256, 257, 258}, {259, 260, 261}, {262, 263, 264}, {265, 266, 267}, {268, 269, 270}, {271, 272, 273}, {274, 275, 276}, {277, 278, 279}, {280, 281, 282}, {283, 284, 285}, {286, 287, 288}, {289, 290, 291}, {292, 293, 294}, {295, 296, 297}, {298, 299, 300}];
succ =  [{28, 26, 25, 18, 16, 13, 8}, {26, 17, 16, 15, 6}, {28, 26, 25, 20, 16, 8}, {34, 29, 24, 22, 18, 17, 12}, {35, 29, 28, 24, 23, 19, 14}, {34, 24, 22, 18, 13}, {28, 23, 19, 16, 15}, {39, 35, 34, 30, 29, 24, 22, 17}, {35, 33, 28, 27, 25, 23, 22, 16}, {34, 30, 28, 25, 19, 15}, {39, 35, 34, 33, 32, 30, 29, 27, 25, 22}, {38, 36, 35, 33, 30, 28, 20}, {36, 31, 29, 20, 19}, {36, 34, 33, 22, 20}, {52, 51, 50, 40, 39, 37, 36, 35, 33, 31, 29, 27}, {43, 40, 39, 32, 30, 24}, {38, 19}, {52, 51, 50, 47, 37, 33, 31, 30, 27}, {52, 51, 50, 47, 40, 37, 33, 32, 27}, {52, 51, 50, 47, 40, 39, 37, 32, 27}, {52, 50, 42, 39, 37, 33, 31, 28}, {52, 51, 50, 48, 45, 43, 42, 41, 40, 37, 31}, {52, 50, 48, 43, 42, 40, 39, 37, 30}, {53, 52, 51, 50, 45, 44, 42, 41, 37, 36}, {53, 51, 50, 46, 45, 44, 42, 41, 40, 36}, {53, 52, 48, 47, 45, 44, 43, 41, 40, 37}, {58, 54, 53, 48, 46, 44, 43, 42, 41}, {54, 53, 49, 47, 46, 45, 44, 43}, {58, 56, 54, 53, 47, 46, 41}, {54, 53, 45, 44, 41}, {53, 49, 46, 38}, {55, 54, 53, 48, 46, 45}, {58, 54, 53, 48, 41}, {58, 56, 54, 53, 49, 47}, {53, 49, 48, 45}, {61, 58, 55, 54, 48, 47}, {58, 54, 49, 46}, {60, 58, 55, 54, 44}, {58, 54, 41}, {60, 58, 56, 49}, {64, 60, 49}, {64, 60, 49}, {64, 60, 59, 57, 55}, {68, 66, 65, 63, 59, 57, 56}, {68, 66, 64, 63, 59, 58, 57}, {70, 66, 64, 63, 61, 60, 57}, {66, 64, 63, 60, 59, 57}, {63, 60, 59, 57, 56}, {59, 57, 55}, {70, 68, 63, 61, 60, 57}, {72, 68, 64, 63, 59, 58}, {68, 66, 65, 59, 57}, {68, 66, 61, 57}, {74, 73, 72, 71, 70, 65, 62}, {71, 68, 66, 65, 63, 62}, {74, 73, 72, 71, 69, 67, 64}, {80, 75, 74, 73, 72, 71, 69, 67}, {73, 71, 65, 62}, {75, 74, 70, 62}, {71, 65, 62}, {80, 77, 72, 71, 69}, {80, 78, 69, 67}, {80, 78, 69, 67}, {90, 82, 80, 79, 78, 77, 76}, {83, 80, 77, 69}, {89, 79, 77, 72}, {90, 88, 86, 85, 84, 83, 82, 76}, {84, 83, 82, 80, 79, 78, 76}, {90, 85, 84, 79, 76}, {90, 84, 79, 78, 76}, {99, 85, 83, 82, 76}, {90, 88, 87, 85, 84, 78}, {95, 90, 87, 85, 84, 78}, {93, 89, 87, 86, 83, 81}, {99, 95, 94, 93, 92, 90, 88, 87, 85}, {95, 93, 89, 87, 81}, {93, 87, 86, 85, 84}, {99, 93, 92, 91, 81}, {98, 95, 93, 92, 88, 87}, {98, 93, 92, 88}, {100, 98, 97, 94}, {98, 95, 91}, {100, 98, 97, 96}, {99, 97, 92}, {98, 97, 96}, {99, 91}, {97, 96}, {91}, {92}, {91}, {96}, {96}, {97}, {96}, {97}, {}, {}, {}, {}, {}];
n_opt = 300;
dur = [14, 15, 28, 6, 15, 19, 4, 13, 17, 6, 20, 30, 11, 14, 26, 9, 21, 27, 9, 22, 30, 12, 24, 28, 2, 8, 24, 1, 21, 24, 4, 5, 12, 5, 16, 24, 13, 16, 30, 2, 5, 20, 1, 4, 5, 5, 10, 27, 6, 8, 24, 14, 20, 24, 7, 15, 21, 5, 9, 30, 25, 28, 29, 7, 8, 10, 6, 16, 27, 19, 25, 26, 7, 19, 22, 6, 22, 23, 3, 21, 25, 5, 23, 26, 6, 21, 30, 7, 17, 18, 13, 25, 27, 9, 24, 26, 11, 14, 23, 1, 13, 29, 12, 15, 21, 1, 8, 9, 2, 11, 14, 7, 11, 24, 1, 5, 23, 3, 7, 10, 11, 15, 19, 13, 14, 15, 6, 7, 24, 5, 7, 23, 10, 22, 25, 15, 20, 21, 7, 14, 18, 5, 6, 24, 22, 23, 29, 8, 21, 25, 2, 6, 8, 8, 9, 15, 14, 27, 28, 8, 18, 25, 7, 10, 30, 4, 12, 27, 21, 22, 25, 7, 13, 23, 12, 13, 21, 19, 20, 23, 4, 5, 26, 1, 6, 14, 20, 21, 27, 2, 17, 20, 5, 8, 17, 3, 17, 20, 21, 23, 28, 8, 20, 24, 5, 14, 21, 9, 11, 19, 5, 7, 27, 4, 22, 26, 10, 12, 13, 12, 13, 16, 7, 12, 19, 8, 22, 24, 8, 9, 23, 2, 17, 25, 13, 16, 28, 7, 8, 26, 15, 16, 17, 5, 6, 15, 7, 17, 20, 16, 18, 20, 8, 11, 14, 2, 13, 14, 8, 15, 28, 19, 21, 26, 1, 6, 22, 5, 16, 29, 10, 11, 17, 9, 11, 22, 13, 28, 29, 4, 22, 27, 1, 23, 29, 6, 10, 18, 5, 8, 26, 6, 7, 8, 2, 12, 27, 5, 21, 24];
rreq = [|3, 1, 1, 2, 1, 1, 1, 1, 1, 3, 2, 2, 4, 3, 3, 3, 3, 3, 4, 3, 2, 3, 2, 2, 5, 4, 4, 4, 3, 3, 3, 3, 3, 5, 4, 2, 2, 2, 1, 3, 3, 1, 4, 4, 4, 2, 2, 2, 2, 1, 1, 2, 2, 2, 2, 1, 1, 4, 3, 2, 4, 4, 3, 4, 3, 3, 2, 1, 1, 2, 2, 2, 4, 4, 4, 5, 4, 3, 2, 2, 2, 2, 2, 2, 3, 2, 2, 4, 3, 2, 3, 3, 3, 3, 2, 2, 5, 3, 2, 4, 4, 4, 3, 3, 3, 4, 3, 3, 4, 3, 3, 4, 4, 4, 3, 3, 3, 2, 1, 1, 5, 4, 4, 1, 1, 1, 5, 3, 2, 2, 2, 2, 2, 1, 1, 2, 1, 1, 3, 3, 3, 3, 3, 2, 4, 3, 2, 5, 3, 3, 2, 1, 1, 3, 2, 2, 3, 1, 1, 5, 3, 3, 4, 3, 2, 4, 3, 3, 4, 3, 3, 3, 1, 1, 5, 5, 5, 1, 1, 1, 5, 2, 2, 2, 2, 2, 3, 2, 1, 2, 2, 2, 3, 2, 1, 2, 1, 1, 5, 5, 5, 4, 3, 2, 2, 2, 2, 4, 4, 4, 1, 1, 1, 2, 2, 2, 2, 2, 1, 5, 3, 1, 5, 5, 5, 1, 1, 1, 4, 4, 4, 3, 2, 2, 3, 2, 2, 3, 3, 1, 5, 3, 2, 4, 2, 1, 2, 2, 2, 3, 3, 3, 4, 2, 1, 3, 1, 1, 3, 2, 2, 3, 2, 2, 4, 4, 4, 3, 2, 2, 4, 3, 3, 3, 3, 3, 1, 1, 1, 3, 2, 1, 4, 4, 4, 4, 3, 3, 4, 2, 1, 4, 4, 3, 2, 2, 2, 2, 2, 1
 |2, 2, 2, 5, 5, 5, 5, 5, 5, 3, 3, 3, 3, 3, 2, 4, 3, 3, 3, 2, 1, 4, 3, 3, 5, 2, 1, 2, 2, 2, 3, 1, 1, 3, 3, 3, 3, 2, 2, 4, 2, 2, 3, 2, 2, 2, 2, 2, 4, 4, 3, 3, 2, 1, 4, 3, 2, 3, 2, 2, 4, 3, 2, 4, 3, 3, 2, 1, 1, 1, 1, 1, 5, 4, 4, 4, 3, 2, 4, 2, 2, 2, 2, 2, 5, 4, 4, 3, 3, 3, 3, 3, 1, 4, 4, 4, 3, 3, 3, 5, 5, 5, 4, 4, 4, 4, 4, 4, 4, 2, 1, 4, 2, 2, 2, 1, 1, 4, 4, 4, 3, 2, 2, 2, 1, 1, 5, 4, 4, 2, 1, 1, 4, 4, 3, 3, 3, 1, 4, 4, 2, 5, 5, 5, 2, 2, 1, 3, 3, 3, 5, 5, 5, 2, 2, 2, 4, 2, 1, 4, 3, 3, 3, 2, 2, 3, 2, 1, 4, 4, 4, 1, 1, 1, 3, 3, 2, 4, 3, 2, 3, 3, 3, 1, 1, 1, 4, 3, 3, 4, 3, 3, 2, 2, 2, 5, 4, 4, 5, 4, 4, 3, 3, 3, 2, 2, 2, 3, 3, 2, 4, 4, 3, 3, 2, 2, 2, 1, 1, 2, 1, 1, 5, 3, 3, 4, 4, 2, 5, 4, 4, 2, 1, 1, 4, 3, 2, 3, 1, 1, 4, 3, 3, 4, 4, 2, 3, 1, 1, 4, 3, 2, 4, 4, 4, 4, 3, 2, 5, 3, 3, 4, 3, 3, 4, 4, 4, 1, 1, 1, 3, 2, 1, 3, 3, 2, 3, 2, 1, 5, 5, 5, 3, 3, 2, 4, 3, 2, 5, 4, 3, 5, 3, 2, 5, 3, 3, 4, 2, 2
 |4, 4, 4, 5, 2, 1, 5, 3, 3, 3, 2, 2, 3, 2, 2, 3, 2, 1, 5, 3, 2, 3, 3, 1, 4, 4, 4, 1, 1, 1, 4, 4, 4, 3, 2, 2, 1, 1, 1, 5, 4, 4, 2, 2, 2, 3, 2, 2, 3, 2, 2, 3, 2, 2, 4, 4, 3, 4, 3, 1, 5, 4, 3, 3, 2, 2, 4, 3, 1, 5, 2, 1, 4, 2, 1, 4, 4, 4, 2, 1, 1, 2, 2, 2, 4, 3, 2, 3, 3, 3, 5, 5, 5, 3, 3, 3, 3, 3, 3, 1, 1, 1, 3, 1, 1, 2, 2, 2, 5, 4, 4, 3, 3, 3, 5, 5, 5, 3, 3, 3, 5, 4, 4, 2, 1, 1, 5, 4, 3, 3, 3, 3, 2, 2, 1, 4, 4, 4, 2, 2, 2, 5, 4, 4, 4, 3, 2, 4, 4, 4, 2, 2, 2, 3, 2, 2, 4, 2, 2, 4, 4, 3, 3, 3, 3, 5, 3, 3, 3, 2, 2, 4, 3, 3, 5, 4, 3, 5, 5, 5, 4, 3, 2, 4, 4, 3, 4, 4, 4, 3, 3, 3, 4, 3, 3, 2, 2, 2, 3, 2, 2, 5, 3, 3, 2, 2, 2, 3, 3, 3, 5, 4, 3, 4, 3, 2, 5, 4, 4, 3, 1, 1, 3, 1, 1, 4, 3, 3, 4, 3, 1, 2, 2, 2, 5, 4, 4, 1, 1, 1, 4, 3, 3, 2, 1, 1, 5, 4, 3, 3, 3, 3, 4, 2, 2, 4, 2, 2, 3, 3, 3, 1, 1, 1, 3, 3, 3, 4, 3, 2, 4, 3, 2, 4, 3, 3, 3, 1, 1, 5, 5, 5, 1, 1, 1, 2, 2, 2, 4, 4, 3, 2, 1, 1, 3, 3, 2, 5, 4, 2
 |4, 4, 4, 3, 3, 2, 3, 3, 3, 4, 4, 4, 5, 4, 2, 4, 2, 2, 1, 1, 1, 2, 2, 2, 4, 3, 3, 2, 2, 2, 3, 3, 2, 2, 2, 1, 5, 3, 1, 3, 3, 3, 2, 2, 2, 2, 2, 1, 5, 5, 5, 4, 2, 2, 4, 4, 4, 5, 4, 4, 4, 3, 3, 2, 2, 2, 5, 4, 3, 2, 2, 2, 5, 4, 3, 3, 2, 1, 4, 4, 3, 4, 4, 2, 4, 3, 3, 3, 2, 2, 3, 2, 2, 5, 3, 2, 2, 2, 2, 4, 4, 3, 4, 3, 3, 3, 2, 1, 3, 3, 3, 3, 2, 2, 5, 3, 2, 3, 3, 3, 2, 2, 2, 3, 2, 2, 3, 2, 2, 4, 4, 3, 4, 2, 2, 2, 2, 2, 2, 2, 2, 2, 2, 2, 1, 1, 1, 3, 2, 2, 2, 1, 1, 4, 3, 2, 3, 3, 3, 4, 3, 1, 4, 4, 4, 3, 3, 3, 2, 2, 2, 4, 4, 4, 3, 3, 3, 5, 4, 3, 1, 1, 1, 3, 2, 2, 4, 4, 4, 3, 3, 3, 2, 2, 2, 4, 3, 3, 4, 4, 3, 4, 2, 2, 5, 2, 1, 5, 2, 2, 3, 3, 2, 3, 3, 2, 4, 2, 2, 4, 4, 4, 2, 1, 1, 3, 1, 1, 4, 4, 4, 5, 4, 3, 4, 4, 4, 3, 3, 2, 4, 4, 3, 3, 3, 3, 4, 3, 3, 4, 2, 1, 4, 4, 3, 3, 3, 2, 3, 2, 2, 5, 2, 2, 3, 3, 3, 5, 4, 3, 2, 1, 1, 4, 3, 2, 1, 1, 1, 5, 4, 3, 5, 4, 3, 4, 3, 3, 5, 3, 1, 4, 4, 4, 1, 1, 1, 3, 3, 3
 |6, 6, 3, 23, 22, 21, 23, 20, 15, 23, 14, 5, 9, 9, 7, 30, 29, 28, 8, 8, 8, 25, 20, 19, 14, 10, 10, 15, 10, 7, 25, 20, 10, 23, 22, 18, 18, 14, 14, 14, 9, 7, 24, 19, 18, 8, 7, 4, 28, 26, 25, 21, 21, 21, 14, 9, 4, 29, 27, 27, 15, 14, 12, 26, 24, 19, 14, 11, 9, 17, 11, 7, 26, 22, 20, 15, 10, 8, 12, 8, 6, 19, 12, 4, 27, 26, 25, 16, 13, 5, 27, 26, 25, 7, 5, 4, 25, 21, 11, 11, 8, 6, 19, 15, 14, 22, 18, 17, 18, 12, 4, 4, 3, 2, 28, 21, 19, 26, 25, 22, 14, 12, 12, 29, 28, 26, 10, 10, 10, 26, 23, 20, 22, 21, 14, 26, 25, 24, 23, 11, 6, 23, 17, 15, 10, 10, 10, 12, 6, 2, 22, 21, 15, 22, 18, 13, 11, 8, 7, 28, 18, 8, 18, 14, 7, 23, 17, 7, 16, 14, 12, 18, 15, 12, 19, 17, 15, 18, 16, 15, 19, 13, 6, 22, 21, 21, 20, 17, 15, 3, 3, 3, 26, 25, 23, 5, 3, 3, 14, 12, 10, 25, 17, 14, 22, 21, 20, 24, 22, 17, 27, 21, 11, 27, 20, 11, 7, 4, 3, 7, 6, 5, 25, 25, 25, 29, 25, 21, 18, 17, 16, 15, 14, 13, 7, 7, 7, 11, 9, 7, 19, 18, 17, 24, 15, 9, 24, 22, 15, 29, 23, 19, 17, 13, 12, 8, 5, 3, 17, 10, 10, 15, 12, 10, 23, 18, 18, 27, 27, 27, 29, 27, 27, 22, 18, 7, 28, 22, 19, 25, 22, 16, 17, 16, 16, 10, 9, 7, 23, 22, 20, 14, 8, 4, 15, 14, 13, 21, 16, 12
 |29, 23, 18, 27, 21, 14, 28, 20, 18, 29, 27, 26, 20, 15, 10, 7, 6, 4, 24, 21, 20, 11, 9, 7, 21, 15, 11, 6, 4, 3, 22, 21, 17, 23, 22, 22, 18, 15, 8, 5, 4, 3, 25, 22, 20, 28, 28, 27, 16, 14, 14, 19, 12, 7, 8, 7, 3, 21, 18, 14, 26, 24, 23, 22, 21, 21, 12, 9, 8, 17, 15, 12, 8, 6, 4, 14, 11, 9, 12, 9, 6, 22, 22, 22, 12, 10, 9, 22, 13, 6, 30, 11, 3, 28, 23, 21, 18, 6, 6, 11, 7, 3, 2, 1, 1, 24, 23, 23, 22, 17, 17, 28, 26, 24, 13, 11, 10, 13, 9, 8, 9, 3, 1, 22, 19, 8, 21, 15, 3, 7, 7, 6, 23, 19, 16, 11, 8, 5, 25, 22, 20, 5, 5, 5, 17, 16, 9, 9, 8, 8, 20, 12, 5, 25, 22, 22, 20, 17, 9, 19, 13, 7, 13, 11, 9, 26, 23, 21, 24, 23, 22, 15, 9, 9, 26, 26, 21, 7, 7, 6, 10, 8, 7, 21, 18, 4, 7, 7, 7, 19, 18, 18, 19, 16, 8, 26, 26, 19, 23, 22, 22, 5, 4, 3, 24, 19, 15, 18, 17, 17, 7, 6, 5, 21, 20, 17, 7, 7, 7, 16, 11, 7, 15, 12, 12, 26, 25, 21, 23, 20, 14, 29, 25, 24, 28, 27, 24, 28, 22, 16, 9, 9, 9, 24, 10, 9, 27, 26, 24, 28, 28, 28, 15, 11, 9, 21, 15, 10, 6, 4, 2, 30, 28, 26, 16, 12, 5, 19, 16, 9, 13, 9, 2, 18, 18, 18, 30, 24, 23, 23, 21, 19, 23, 23, 21, 22, 16, 15, 20, 15, 12, 29, 23, 14, 29, 27, 23, 21, 10, 5
 |25, 21, 17, 24, 21, 11, 10, 10, 3, 25, 21, 19, 11, 8, 7, 29, 22, 12, 22, 22, 18, 23, 23, 23, 15, 7, 2, 7, 4, 2, 12, 7, 5, 27, 25, 24, 26, 22, 21, 7, 7, 7, 20, 18, 2, 13, 9, 7, 24, 21, 20, 22, 8, 5, 23, 18, 9, 24, 23, 18, 15, 12, 7, 29, 23, 16, 21, 12, 3, 25, 22, 21, 26, 17, 6, 29, 22, 11, 26, 21, 15, 21, 21, 21, 10, 9, 8, 22, 10, 6, 28, 24, 24, 22, 20, 12, 16, 12, 11, 24, 17, 10, 24, 23, 22, 23, 19, 17, 19, 19, 6, 16, 15, 14, 23, 16, 5, 28, 27, 27, 24, 14, 14, 18, 16, 14, 19, 10, 9, 2, 2, 1, 17, 13, 4, 13, 10, 5, 14, 11, 9, 21, 19, 12, 28, 21, 18, 22, 13, 12, 22, 16, 7, 21, 14, 9, 10, 9, 8, 17, 17, 17, 25, 24, 24, 7, 4, 3, 12, 12, 9, 21, 19, 9, 5, 4, 3, 9, 6, 5, 24, 22, 22, 25, 22, 21, 25, 16, 10, 20, 13, 1, 19, 17, 16, 22, 15, 14, 25, 24, 23, 25, 24, 18, 28, 25, 24, 20, 18, 12, 19, 14, 13, 16, 14, 12, 14, 10, 6, 9, 8, 4, 15, 13, 10, 23, 13, 6, 17, 11, 11, 9, 7, 3, 20, 20, 18, 8, 6, 4, 7, 6, 5, 24, 19, 13, 21, 13, 11, 10, 7, 6, 19, 14, 10, 25, 21, 20, 21, 19, 19, 21, 17, 15, 25, 18, 11, 20, 19, 5, 24, 18, 9, 23, 22, 21, 19, 16, 2, 30, 16, 10, 26, 24, 22, 14, 12, 9, 14, 10, 1, 24, 21, 19, 13, 9, 4, 26, 24, 23
 |23, 19, 18, 23, 16, 11, 11, 8, 5, 26, 25, 25, 17, 16, 16, 9, 7, 4, 20, 19, 19, 8, 8, 8, 25, 21, 18, 14, 12, 9, 22, 17, 14, 16, 8, 4, 21, 17, 15, 21, 19, 16, 10, 9, 7, 27, 26, 26, 22, 19, 11, 13, 13, 11, 16, 13, 8, 28, 26, 25, 13, 12, 9, 20, 15, 15, 20, 19, 19, 12, 12, 11, 23, 21, 21, 23, 22, 16, 13, 13, 12, 27, 26, 25, 7, 7, 7, 25, 14, 12, 23, 17, 5, 25, 18, 8, 27, 26, 26, 19, 15, 12, 19, 12, 11, 14, 12, 10, 20, 15, 12, 27, 19, 15, 9, 9, 9, 23, 20, 17, 10, 10, 8, 27, 23, 21, 28, 27, 24, 20, 18, 15, 18, 14, 9, 24, 18, 10, 16, 15, 14, 15, 15, 4, 16, 13, 8, 19, 19, 19, 29, 27, 26, 6, 5, 5, 7, 6, 6, 7, 7, 6, 27, 26, 24, 23, 15, 7, 27, 18, 18, 8, 6, 4, 18, 16, 6, 20, 19, 17, 29, 28, 26, 15, 12, 11, 21, 14, 13, 23, 19, 15, 24, 16, 11, 25, 17, 12, 27, 26, 25, 15, 14, 11, 23, 14, 10, 16, 11, 4, 14, 10, 3, 15, 14, 13, 3, 3, 1, 28, 28, 28, 16, 12, 8, 10, 10, 7, 19, 13, 4, 6, 6, 6, 13, 10, 7, 16, 12, 10, 29, 23, 19, 27, 26, 26, 18, 8, 1, 4, 2, 2, 27, 21, 12, 25, 24, 23, 14, 14, 12, 11, 6, 4, 29, 28, 28, 11, 10, 9, 9, 9, 7, 16, 15, 15, 6, 6, 5, 27, 22, 21, 10, 10, 10, 30, 27, 26, 10, 6, 4, 5, 3, 3, 3, 3, 3, 6, 6, 5|];